32      4       
19      14      19      18      
0       0       0       0       0       2       2       3       
8       0       10      0       10      3       6       5       4       
3       10      0       18      0       3       7       6       5       
9       18      12      0       0       3       13      9       7       
6       0       2       15      0       7       23      19      15      13      12      11      9       
3       0       9       19      0       5       24      20      19      14      8       
1       19      14      0       0       11      24      23      22      21      19      18      15      14      12      11      10      
4       0       0       11      13      10      23      22      21      17      16      15      13      12      11      10      
7       0       13      0       12      8       24      21      20      18      17      16      14      10      
6       0       14      19      0       5       31      28      27      26      25      
5       0       14      0       18      5       31      28      27      26      25      
10      0       0       17      18      5       31      28      27      26      25      
9       18      0       0       18      5       31      28      27      26      25      
1       7       0       18      0       4       31      28      27      26      
10      13      0       13      0       4       28      27      26      25      
3       0       0       8       18      4       31      28      26      25      
4       19      0       14      0       4       28      27      26      25      
3       0       8       11      0       4       31      28      26      25      
6       17      14      0       0       4       31      30      27      26      
8       19      13      0       0       4       31      30      27      26      
8       0       14      0       15      3       27      26      25      
6       19      10      0       0       3       27      26      25      
2       0       0       12      9       2       28      26      
9       19      0       0       16      2       27      25      
4       19      0       0       5       2       30      29      
5       1       0       0       12      1       29      
4       0       7       0       9       1       29      
1       0       4       19      0       1       30      
10      0       0       11      16      1       32      
1       3       0       0       14      1       32      
10      13      0       9       0       1       32      
0       0       0       0       0       0       
